
Gurobi 9.5.0 (win64) logging started Tue Dec  7 12:27:04 2021

Set parameter LogFile to value "../results/logs/log_2021_12_07_12_26.csv_2_55.log"
Set parameter Method to value 3
Gurobi Optimizer version 9.5.0 build v9.5.0rc5 (win64)
Thread count: 6 physical cores, 12 logical processors, using up to 12 threads
Optimize a model with 7793 rows, 9882 columns and 42118 nonzeros
Model fingerprint: 0x3624fb89
Variable types: 4941 continuous, 4941 integer (4941 binary)
Coefficient statistics:
  Matrix range     [1e+00, 2e+00]
  Objective range  [1e+00, 1e+00]
  Bounds range     [1e+00, 1e+00]
  RHS range        [1e+00, 6e+01]
Found heuristic solution: objective 3353.0000000
Presolve removed 7455 rows and 9420 columns
Presolve time: 0.02s
Presolved: 338 rows, 462 columns, 1285 nonzeros
Variable types: 153 continuous, 309 integer (255 binary)
Found heuristic solution: objective 3408.0000000

Root relaxation: objective 3.534500e+03, 324 iterations, 0.00 seconds (0.00 work units)

    Nodes    |    Current Node    |     Objective Bounds      |     Work
 Expl Unexpl |  Obj  Depth IntInf | Incumbent    BestBd   Gap | It/Node Time

     0     0 3534.50000    0   61 3408.00000 3534.50000  3.71%     -    0s
H    0     0                    3482.0000000 3534.50000  1.51%     -    0s
H    0     0                    3484.0000000 3534.50000  1.45%     -    0s
     0     0 3526.00000    0   96 3484.00000 3526.00000  1.21%     -    0s
H    0     0                    3485.0000000 3526.00000  1.18%     -    0s
     0     0 3506.16667    0   23 3485.00000 3506.16667  0.61%     -    0s
H    0     0                    3493.0000000 3506.16667  0.38%     -    0s
     0     0 3503.83333    0   13 3493.00000 3503.83333  0.31%     -    0s
*    0     0               0    3502.0000000 3502.00000  0.00%     -    0s

Cutting planes:
  Gomory: 32
  Implied bound: 44
  MIR: 102
  RLT: 17
  Relax-and-lift: 2

Explored 1 nodes (685 simplex iterations) in 0.07 seconds (0.03 work units)
Thread count was 12 (of 12 available processors)

Solution count 7: 3502 3493 3485 ... 3353

Optimal solution found (tolerance 1.00e-04)
Best objective 3.502000000000e+03, best bound 3.502000000000e+03, gap 0.0000%
